language Essence 1.3

letting class be function(1 --> 2, 2 --> 4, 3 --> 2, 4 --> 3, 5 --> 5, 6 --> 6, 7 --> 1)
letting deck_length be 3
letting deck_width be 40
letting length be function(1 --> 3, 2 --> 3, 3 --> 3, 4 --> 2, 5 --> 1, 6 --> 3, 7 --> 3)
letting n_classes be 6
letting n_containers be 7
letting separation be function()
letting width be function(1 --> 17, 2 --> 15, 3 --> 1, 4 --> 1, 5 --> 1, 6 --> 1, 7 --> 1)
